Instance name : DPDPTWUR-R_one_clustering_DPDPTW-R_mitrovic-minic_Rnd6_10h_100_002_slice_5
Authors : 
Date : 
Reference 
Solution
Route 1 : 6 62 1 27 36 40 4 96 60 53 57 83 10 39 11 109 29 67 44 95 100 92 66 85 51 3 18 59 107 74 8 64 
Route 2 : 54 37 93 30 86 110 25 33 81 89 14 70 47 103 16 52 72 24 80 23 108 79 
Route 3 : 5 26 61 82 38 2 31 94 58 17 87 32 48 22 46 102 21 73 88 77 78 41 15 45 7 63 104 71 97 101 
Route 4 : 42 9 65 35 98 91 43 50 99 106 
Route 5 : 20 55 76 111 56 112 
Route 6 : 13 19 69 12 75 68 
Route 7 : 
Route 8 : 
Route 9 : 
Route 10 : 
Route 11 : 
Route 12 : 
Route 13 : 
Route 14 : 
Route 15 : 
Route 16 : 
Route 17 : 
Route 18 : 
Route 19 : 
Route 20 : 
Route 21 : 
